Gurobi Optimizer version 9.1.2 build v9.1.2rc0 (linux64)
Thread count: 36 physical cores, 72 logical processors, using up to 32 threads
Optimize a model with 12 rows, 57 columns and 590 nonzeros
Model fingerprint: 0xf32eec78
Model has 47 quadratic constraints
Coefficient statistics:
  Matrix range     [2e-05, 3e+00]
  QMatrix range    [1e+00, 1e+00]
  QLMatrix range   [1e+00, 1e+00]
  Objective range  [8e-03, 7e-01]
  Bounds range     [1e+00, 1e+00]
  RHS range        [1e+00, 1e+00]
Presolve removed 9 rows and 0 columns

Continuous model is non-convex -- solving as a MIP.

Presolve removed 9 rows and 0 columns
Presolve time: 0.00s
Presolved: 189 rows, 57 columns, 443 nonzeros
Presolved model has 47 bilinear constraint(s)
Variable types: 57 continuous, 0 integer (0 binary)

Root relaxation: objective -1.743721e+00, 44 iterations, 0.00 seconds

    Nodes    |    Current Node    |     Objective Bounds      |     Work
 Expl Unexpl |  Obj  Depth IntInf | Incumbent    BestBd   Gap | It/Node Time

     0     0   -1.74372    0   38          -   -1.74372      -     -    0s
H    0     0                       0.6147548   -1.74372   384%     -    0s
     0     0   -1.64739    0    1    0.61475   -1.64739   368%     -    0s
H    0     0                      -1.6450460   -1.64739  0.14%     -    0s
     0     0     cutoff    0        -1.64505   -1.64505  0.00%     -    0s

Cutting planes:
  RLT: 25
  BQP: 3

Explored 1 nodes (76 simplex iterations) in 0.01 seconds
Thread count was 32 (of 72 available processors)

Solution count 2: -1.64505 0.614755 
No other solutions better than -1.64505

Optimal solution found (tolerance 1.00e-04)
Best objective -1.645045978473e+00, best bound -1.645045978473e+00, gap 0.0000%

User-callback calls 78, time in user-callback 0.00 sec
Gurobi Optimizer version 9.1.2 build v9.1.2rc0 (linux64)
Thread count: 36 physical cores, 72 logical processors, using up to 32 threads
Optimize a model with 24 rows, 120 columns and 2480 nonzeros
Model fingerprint: 0x399240a2
Model has 100 quadratic constraints
Coefficient statistics:
  Matrix range     [8e-06, 4e+00]
  QMatrix range    [1e+00, 1e+00]
  QLMatrix range   [1e+00, 1e+00]
  Objective range  [6e-03, 1e+00]
  Bounds range     [1e+00, 1e+00]
  RHS range        [1e+00, 1e+00]
Presolve removed 17 rows and 0 columns

Continuous model is non-convex -- solving as a MIP.

Presolve removed 17 rows and 0 columns
Presolve time: 0.00s
Presolved: 407 rows, 120 columns, 1232 nonzeros
Presolved model has 100 bilinear constraint(s)
Variable types: 120 continuous, 0 integer (0 binary)

Root relaxation: objective -9.779893e+00, 128 iterations, 0.00 seconds

    Nodes    |    Current Node    |     Objective Bounds      |     Work
 Expl Unexpl |  Obj  Depth IntInf | Incumbent    BestBd   Gap | It/Node Time

     0     0   -9.77989    0  100          -   -9.77989      -     -    0s
H    0     0                       1.0519089   -9.77989  1030%     -    0s
     0     0   -6.72870    0  100    1.05191   -6.72870   740%     -    0s
H    0     0                       0.4339048   -6.72870  1651%     -    0s
     0     0   -6.72190    0  100    0.43390   -6.72190  1649%     -    0s
     0     0   -5.96812    0  100    0.43390   -5.96812  1475%     -    0s
H    0     0                      -0.6366562   -5.96812   837%     -    0s
     0     0   -5.95511    0  100   -0.63666   -5.95511   835%     -    0s
     0     0   -5.78909    0   90   -0.63666   -5.78909   809%     -    0s
H    0     0                      -1.0629939   -5.78909   445%     -    0s
     0     0   -5.76936    0   90   -1.06299   -5.76936   443%     -    0s
     0     0   -5.74442    0  100   -1.06299   -5.74442   440%     -    0s
H    0     0                      -1.0752600   -5.74442   434%     -    0s
     0     0   -5.73929    0  100   -1.07526   -5.73929   434%     -    0s
     0     0   -5.72557    0  100   -1.07526   -5.72557   432%     -    0s
H    0     0                      -1.0780095   -5.72557   431%     -    0s
     0     0   -5.72244    0  100   -1.07801   -5.72244   431%     -    0s
     0     0   -5.72097    0  100   -1.07801   -5.72097   431%     -    0s
     0     0   -5.72043    0   90   -1.07801   -5.72043   431%     -    0s
     0     0   -5.71432    0  100   -1.07801   -5.71432   430%     -    0s
H    0     0                      -2.3822517   -5.71432   140%     -    0s
H    0     0                      -4.1757722   -5.71432  36.8%     -    0s
     0     2   -5.71432    0  100   -4.17577   -5.71432  36.8%     -    0s
*  637   446              24      -4.2004979   -5.07933  20.9%  31.7    0s
*  638   446              24      -4.2005020   -5.07933  20.9%  31.6    0s
*  771   516              29      -4.4488781   -5.07933  14.2%  29.3    0s
* 1021   524              20      -4.7298344   -5.00791  5.88%  26.1    0s
* 1110   541              27      -4.8153734   -4.93049  2.39%  24.9    0s
* 1131   541              26      -4.8153901   -4.93049  2.39%  24.6    0s
* 1316   304              19      -4.8223372   -4.82934  0.15%  22.4    0s
* 1537   124              19      -4.8245151   -4.82934  0.10%  19.4    0s
* 1539   124              20      -4.8248307   -4.82934  0.09%  19.4    0s
* 1541   124              21      -4.8249127   -4.82934  0.09%  19.4    0s
* 1548   124              21      -4.8279830   -4.82934  0.03%  19.3    0s
* 1570   124              21      -4.8284699   -4.82934  0.02%  19.1    0s
* 1571   124              21      -4.8285424   -4.82934  0.02%  19.1    0s
* 1573   124              21      -4.8288985   -4.82934  0.01%  19.1    0s
* 1574   124              21      -4.8289169   -4.82934  0.01%  19.1    0s

Cutting planes:
  RLT: 72
  BQP: 14
  PSD: 29

Explored 1831 nodes (30694 simplex iterations) in 0.56 seconds
Thread count was 32 (of 72 available processors)

Solution count 10: -4.82892 -4.8289 -4.82854 ... -4.81539

Optimal solution found (tolerance 1.00e-04)
Best objective -4.828916903668e+00, best bound -4.829340750525e+00, gap 0.0088%

User-callback calls 3957, time in user-callback 0.00 sec



objective value: -4.8289169036677295
objective bound: -4.8293407505254144
x_opt: [0.0, 1.0, 1.0, 0.0, 1.0, 0.3063771914742648, 0.00011341538165077432, 0.0, 1.0, 0.37317766931286256, 0.0, 0.0, 0.0, 1.0, 0.0, 0.8367242228372981, 1.0, 0.9578296602284478, 0.0, 1.0]
GUROBI solution time: 0.5563328266143799




